20 64 
1 5 1
1 6 1
1 7 1
1 8 1
1 10 1
1 11 1
1 13 1
1 16 1
2 5 1
2 7 1
2 10 1
2 12 1
2 13 1
2 14 1
2 20 1
3 5 1
3 6 1
3 7 1
3 8 1
3 16 1
3 19 1
4 5 1
4 6 1
5 6 1
5 7 1
5 8 1
5 9 1
5 10 1
5 11 1
5 13 1
5 14 1
5 15 1
5 16 1
5 20 1
6 9 1
6 10 1
6 15 1
7 8 1
7 9 1
8 9 1
8 11 1
8 13 1
8 14 1
8 15 1
8 16 1
8 17 1
8 19 1
9 12 1
9 15 1
9 19 1
10 11 1
10 12 1
10 14 1
10 17 1
10 18 1
11 12 1
13 18 1
14 17 1
14 18 1
14 20 1
15 17 1
15 18 1
15 19 1
19 20 1
